25° run output:
{
    "Function": "kroB1000.tsp",
    "Problem dimension": [
        123,
        38,
        138,
        409,
        626,
        848,
        320,
        466,
        863,
        536,
        611,
        160,
        106,
        127,
        752,
        794,
        896,
        870,
        813,
        928,
        644,
        730,
        198,
        563,
        766,
        417,
        382,
        554,
        706,
        103,
        207,
        328,
        273,
        489,
        561,
        45,
        40,
        506,
        311,
        544,
        430,
        118,
        968,
        911,
        480,
        841,
        562,
        377,
        946,
        390,
        568,
        953,
        11,
        724,
        364,
        117,
        404,
        678,
        109,
        6,
        884,
        550,
        558,
        690,
        722,
        797,
        640,
        717,
        711,
        52,
        985,
        80,
        116,
        51,
        63,
        65,
        186,
        982,
        889,
        696,
        580,
        210,
        767,
        367,
        856,
        253,
        85,
        858,
        875,
        555,
        710,
        842,
        578,
        129,
        158,
        769,
        549,
        686,
        41,
        609,
        315,
        279,
        222,
        48,
        837,
        5,
        861,
        265,
        285,
        625,
        524,
        655,
        352,
        139,
        440,
        642,
        641,
        575,
        294,
        205,
        59,
        916,
        971,
        414,
        398,
        416,
        897,
        493,
        437,
        893,
        90,
        102,
        473,
        149,
        216,
        407,
        221,
        144,
        0,
        208,
        507,
        302,
        132,
        235,
        370,
        938,
        929,
        264,
        332,
        247,
        415,
        460,
        21,
        941,
        741,
        954,
        436,
        602,
        866,
        823,
        727,
        885,
        10,
        96,
        269,
        852,
        346,
        206,
        289,
        726,
        479,
        543,
        667,
        605,
        397,
        284,
        825,
        486,
        218,
        948,
        694,
        260,
        986,
        162,
        963,
        373,
        822,
        67,
        831,
        445,
        355,
        446,
        154,
        185,
        112,
        187,
        715,
        854,
        73,
        654,
        15,
        643,
        481,
        422,
        878,
        389,
        865,
        931,
        228,
        613,
        725,
        293,
        468,
        469,
        475,
        83,
        700,
        925,
        383,
        288,
        737,
        278,
        72,
        470,
        461,
        988,
        828,
        421,
        599,
        653,
        795,
        184,
        997,
        238,
        819,
        388,
        232,
        951,
        983,
        95,
        379,
        958,
        497,
        88,
        255,
        657,
        691,
        714,
        573,
        601,
        703,
        585,
        84,
        46,
        376,
        429,
        248,
        526,
        405,
        393,
        748,
        500,
        476,
        136,
        361,
        135,
        750,
        818,
        204,
        381,
        281,
        805,
        705,
        560,
        617,
        830,
        245,
        749,
        201,
        959,
        471,
        71,
        105,
        633,
        890,
        438,
        230,
        770,
        704,
        515,
        347,
        449,
        439,
        782,
        756,
        799,
        236,
        718,
        19,
        693,
        378,
        110,
        368,
        227,
        944,
        403,
        150,
        747,
        200,
        1,
        860,
        540,
        122,
        895,
        424,
        178,
        450,
        49,
        91,
        788,
        101,
        759,
        661,
        266,
        366,
        612,
        134,
        672,
        729,
        380,
        631,
        699,
        323,
        935,
        225,
        821,
        349,
        58,
        518,
        271,
        900,
        912,
        27,
        719,
        254,
        950,
        739,
        434,
        670,
        618,
        807,
        125,
        758,
        765,
        77,
        161,
        275,
        530,
        322,
        996,
        401,
        768,
        169,
        608,
        993,
        324,
        539,
        420,
        709,
        668,
        2,
        639,
        391,
        126,
        447,
        7,
        111,
        660,
        267,
        723,
        517,
        219,
        399,
        992,
        914,
        638,
        596,
        677,
        334,
        226,
        512,
        734,
        35,
        146,
        987,
        809,
        763,
        762,
        467,
        922,
        664,
        79,
        282,
        753,
        662,
        43,
        494,
        688,
        603,
        909,
        341,
        360,
        333,
        621,
        156,
        671,
        12,
        13,
        576,
        321,
        23,
        572,
        689,
        280,
        3,
        454,
        622,
        775,
        505,
        632,
        751,
        314,
        868,
        679,
        579,
        881,
        62,
        239,
        217,
        509,
        867,
        629,
        681,
        229,
        133,
        234,
        120,
        171,
        272,
        411,
        614,
        252,
        774,
        598,
        587,
        978,
        231,
        22,
        182,
        989,
        336,
        488,
        553,
        76,
        107,
        89,
        37,
        675,
        114,
        651,
        395,
        791,
        400,
        385,
        802,
        556,
        533,
        793,
        78,
        904,
        520,
        547,
        514,
        9,
        761,
        42,
        832,
        943,
        778,
        92,
        583,
        465,
        545,
        241,
        24,
        283,
        177,
        645,
        826,
        56,
        451,
        270,
        74,
        394,
        318,
        829,
        175,
        927,
        610,
        919,
        836,
        801,
        676,
        712,
        356,
        785,
        240,
        702,
        957,
        371,
        582,
        570,
        924,
        362,
        684,
        921,
        732,
        97,
        29,
        168,
        477,
        482,
        577,
        167,
        487,
        593,
        542,
        846,
        713,
        441,
        548,
        418,
        627,
        673,
        947,
        174,
        189,
        589,
        93,
        419,
        151,
        646,
        462,
        565,
        521,
        973,
        124,
        444,
        82,
        779,
        348,
        962,
        329,
        237,
        104,
        624,
        159,
        483,
        634,
        484,
        453,
        28,
        153,
        197,
        656,
        212,
        872,
        529,
        882,
        17,
        595,
        243,
        942,
        170,
        452,
        838,
        148,
        246,
        967,
        981,
        535,
        522,
        964,
        665,
        939,
        47,
        965,
        910,
        772,
        193,
        764,
        787,
        140,
        286,
        755,
        736,
        708,
        442,
        357,
        179,
        456,
        757,
        843,
        970,
        552,
        50,
        459,
        299,
        519,
        588,
        455,
        833,
        820,
        157,
        244,
        743,
        295,
        525,
        991,
        443,
        53,
        192,
        636,
        392,
        98,
        310,
        408,
        344,
        375,
        510,
        685,
        504,
        142,
        790,
        262,
        658,
        857,
        119,
        649,
        955,
        949,
        190,
        886,
        163,
        345,
        803,
        69,
        402,
        319,
        330,
        934,
        976,
        697,
        808,
        845,
        259,
        165,
        742,
        674,
        926,
        786,
        871,
        979,
        363,
        427,
        211,
        930,
        268,
        817,
        485,
        887,
        350,
        735,
        305,
        250,
        902,
        36,
        816,
        720,
        464,
        532,
        810,
        891,
        55,
        303,
        491,
        590,
        591,
        54,
        87,
        432,
        203,
        412,
        789,
        669,
        999,
        811,
        8,
        220,
        780,
        936,
        783,
        834,
        894,
        998,
        647,
        740,
        923,
        425,
        463,
        892,
        369,
        874,
        274,
        33,
        496,
        745,
        594,
        716,
        191,
        566,
        623,
        308,
        300,
        64,
        898,
        81,
        933,
        365,
        209,
        840,
        698,
        256,
        66,
        457,
        396,
        290,
        340,
        508,
        806,
        155,
        214,
        899,
        975,
        428,
        615,
        301,
        431,
        317,
        30,
        804,
        75,
        592,
        68,
        680,
        619,
        839,
        313,
        498,
        746,
        277,
        960,
        744,
        359,
        584,
        754,
        940,
        800,
        538,
        888,
        387,
        298,
        263,
        173,
        100,
        251,
        410,
        876,
        495,
        131,
        903,
        859,
        478,
        423,
        108,
        827,
        855,
        292,
        331,
        70,
        490,
        569,
        261,
        309,
        707,
        426,
        824,
        339,
        195,
        183,
        188,
        113,
        291,
        792,
        358,
        606,
        257,
        628,
        835,
        781,
        338,
        995,
        659,
        354,
        121,
        850,
        143,
        61,
        147,
        721,
        880,
        242,
        776,
        581,
        145,
        847,
        864,
        181,
        537,
        99,
        180,
        905,
        435,
        343,
        977,
        215,
        199,
        34,
        372,
        961,
        551,
        351,
        224,
        784,
        213,
        31,
        287,
        620,
        513,
        327,
        384,
        682,
        296,
        918,
        306,
        546,
        16,
        502,
        853,
        760,
        60,
        32,
        873,
        44,
        956,
        39,
        600,
        386,
        406,
        616,
        994,
        635,
        877,
        94,
        650,
        196,
        844,
        413,
        731,
        527,
        164,
        86,
        14,
        637,
        695,
        172,
        683,
        26,
        128,
        883,
        851,
        501,
        901,
        474,
        337,
        152,
        969,
        917,
        738,
        325,
        304,
        223,
        571,
        972,
        472,
        773,
        523,
        458,
        974,
        574,
        815,
        531,
        908,
        511,
        433,
        503,
        202,
        663,
        4,
        312,
        692,
        687,
        567,
        777,
        534,
        701,
        353,
        728,
        652,
        137,
        176,
        666,
        194,
        920,
        18,
        937,
        297,
        559,
        597,
        945,
        607,
        492,
        586,
        516,
        499,
        342,
        879,
        630,
        906,
        233,
        557,
        932,
        966,
        258,
        907,
        798,
        980,
        564,
        448,
        374,
        130,
        952,
        166,
        913,
        814,
        335,
        528,
        648,
        733,
        990,
        604,
        812,
        249,
        20,
        869,
        115,
        25,
        141,
        276,
        541,
        796,
        316,
        326,
        849,
        984,
        771,
        862,
        57,
        915,
        307
    ],
    "Global Optimum": 0,
    "Algorithm": "Genetic algorithm",
    "Parameters": {
        "population": 30,
        "offspring": 30,
        "mutation probability": 0.001,
        "crossover probability": 0.9
    },
    "Fitness": 1342305,
    "Solution": [
        123,
        38,
        138,
        409,
        626,
        848,
        320,
        466,
        863,
        536,
        611,
        160,
        106,
        127,
        752,
        794,
        896,
        870,
        813,
        928,
        644,
        730,
        198,
        563,
        766,
        417,
        382,
        554,
        706,
        103,
        207,
        328,
        273,
        489,
        561,
        45,
        40,
        506,
        311,
        544,
        430,
        118,
        968,
        911,
        480,
        841,
        562,
        377,
        946,
        390,
        568,
        953,
        11,
        724,
        364,
        117,
        404,
        678,
        109,
        6,
        884,
        550,
        558,
        690,
        722,
        797,
        640,
        717,
        711,
        52,
        985,
        80,
        116,
        51,
        63,
        65,
        186,
        982,
        889,
        696,
        580,
        210,
        767,
        367,
        856,
        253,
        85,
        858,
        875,
        555,
        710,
        842,
        578,
        129,
        158,
        769,
        549,
        686,
        41,
        609,
        315,
        279,
        222,
        48,
        837,
        5,
        861,
        265,
        285,
        625,
        524,
        655,
        352,
        139,
        440,
        642,
        641,
        575,
        294,
        205,
        59,
        916,
        971,
        414,
        398,
        416,
        897,
        493,
        437,
        893,
        90,
        102,
        473,
        149,
        216,
        407,
        221,
        144,
        0,
        208,
        507,
        302,
        132,
        235,
        370,
        938,
        929,
        264,
        332,
        247,
        415,
        460,
        21,
        941,
        741,
        954,
        436,
        602,
        866,
        823,
        727,
        885,
        10,
        96,
        269,
        852,
        346,
        206,
        289,
        726,
        479,
        543,
        667,
        605,
        397,
        284,
        825,
        486,
        218,
        948,
        694,
        260,
        986,
        162,
        963,
        373,
        822,
        67,
        831,
        445,
        355,
        446,
        154,
        185,
        112,
        187,
        715,
        854,
        73,
        654,
        15,
        643,
        481,
        422,
        878,
        389,
        865,
        931,
        228,
        613,
        725,
        293,
        468,
        469,
        475,
        83,
        700,
        925,
        383,
        288,
        737,
        278,
        72,
        470,
        461,
        988,
        828,
        421,
        599,
        653,
        795,
        184,
        997,
        238,
        819,
        388,
        232,
        951,
        983,
        95,
        379,
        958,
        497,
        88,
        255,
        657,
        691,
        714,
        573,
        601,
        703,
        585,
        84,
        46,
        376,
        429,
        248,
        526,
        405,
        393,
        748,
        500,
        476,
        136,
        361,
        135,
        750,
        818,
        204,
        381,
        281,
        805,
        705,
        560,
        617,
        830,
        245,
        749,
        201,
        959,
        471,
        71,
        105,
        633,
        890,
        438,
        230,
        770,
        704,
        515,
        347,
        449,
        439,
        782,
        756,
        799,
        236,
        718,
        19,
        693,
        378,
        110,
        368,
        227,
        944,
        403,
        150,
        747,
        200,
        1,
        860,
        540,
        122,
        895,
        424,
        178,
        450,
        49,
        91,
        788,
        101,
        759,
        661,
        266,
        366,
        612,
        134,
        672,
        729,
        380,
        631,
        699,
        323,
        935,
        225,
        821,
        349,
        58,
        518,
        271,
        900,
        912,
        27,
        719,
        254,
        950,
        739,
        434,
        670,
        618,
        807,
        125,
        758,
        765,
        77,
        161,
        275,
        530,
        322,
        996,
        401,
        768,
        169,
        608,
        993,
        324,
        539,
        420,
        709,
        668,
        2,
        639,
        391,
        126,
        447,
        7,
        111,
        660,
        267,
        723,
        517,
        219,
        399,
        992,
        914,
        638,
        596,
        677,
        334,
        226,
        512,
        734,
        35,
        146,
        987,
        809,
        763,
        762,
        467,
        922,
        664,
        79,
        282,
        753,
        662,
        43,
        494,
        688,
        603,
        909,
        341,
        360,
        333,
        621,
        156,
        671,
        12,
        13,
        576,
        321,
        23,
        572,
        689,
        280,
        3,
        454,
        622,
        775,
        505,
        632,
        751,
        314,
        868,
        679,
        579,
        881,
        62,
        239,
        217,
        509,
        867,
        629,
        681,
        229,
        133,
        234,
        120,
        171,
        272,
        411,
        614,
        252,
        774,
        598,
        587,
        978,
        231,
        22,
        182,
        989,
        336,
        488,
        553,
        76,
        107,
        89,
        37,
        675,
        114,
        651,
        395,
        791,
        400,
        385,
        802,
        556,
        533,
        793,
        78,
        904,
        520,
        547,
        514,
        9,
        761,
        42,
        832,
        943,
        778,
        92,
        583,
        465,
        545,
        241,
        24,
        283,
        177,
        645,
        826,
        56,
        451,
        270,
        74,
        394,
        318,
        829,
        175,
        927,
        610,
        919,
        836,
        801,
        676,
        712,
        356,
        785,
        240,
        702,
        957,
        371,
        582,
        570,
        924,
        362,
        684,
        921,
        732,
        97,
        29,
        168,
        477,
        482,
        577,
        167,
        487,
        593,
        542,
        846,
        713,
        441,
        548,
        418,
        627,
        673,
        947,
        174,
        189,
        589,
        93,
        419,
        151,
        646,
        462,
        565,
        521,
        973,
        124,
        444,
        82,
        779,
        348,
        962,
        329,
        237,
        104,
        624,
        159,
        483,
        634,
        484,
        453,
        28,
        153,
        197,
        656,
        212,
        872,
        529,
        882,
        17,
        595,
        243,
        942,
        170,
        452,
        838,
        148,
        246,
        967,
        981,
        535,
        522,
        964,
        665,
        939,
        47,
        965,
        910,
        772,
        193,
        764,
        787,
        140,
        286,
        755,
        736,
        708,
        442,
        357,
        179,
        456,
        757,
        843,
        970,
        552,
        50,
        459,
        299,
        519,
        588,
        455,
        833,
        820,
        157,
        244,
        743,
        295,
        525,
        991,
        443,
        53,
        192,
        636,
        392,
        98,
        310,
        408,
        344,
        375,
        510,
        685,
        504,
        142,
        790,
        262,
        658,
        857,
        119,
        649,
        955,
        949,
        190,
        886,
        163,
        345,
        803,
        69,
        402,
        319,
        330,
        934,
        976,
        697,
        808,
        845,
        259,
        165,
        742,
        674,
        926,
        786,
        871,
        979,
        363,
        427,
        211,
        930,
        268,
        817,
        485,
        887,
        350,
        735,
        305,
        250,
        902,
        36,
        816,
        720,
        464,
        532,
        810,
        891,
        55,
        303,
        491,
        590,
        591,
        54,
        87,
        432,
        203,
        412,
        789,
        669,
        999,
        811,
        8,
        220,
        780,
        936,
        783,
        834,
        894,
        998,
        647,
        740,
        923,
        425,
        463,
        892,
        369,
        874,
        274,
        33,
        496,
        745,
        594,
        716,
        191,
        566,
        623,
        308,
        300,
        64,
        898,
        81,
        933,
        365,
        209,
        840,
        698,
        256,
        66,
        457,
        396,
        290,
        340,
        508,
        806,
        155,
        214,
        899,
        975,
        428,
        615,
        301,
        431,
        317,
        30,
        804,
        75,
        592,
        68,
        680,
        619,
        839,
        313,
        498,
        746,
        277,
        960,
        744,
        359,
        584,
        754,
        940,
        800,
        538,
        888,
        387,
        298,
        263,
        173,
        100,
        251,
        410,
        876,
        495,
        131,
        903,
        859,
        478,
        423,
        108,
        827,
        855,
        292,
        331,
        70,
        490,
        569,
        261,
        309,
        707,
        426,
        824,
        339,
        195,
        183,
        188,
        113,
        291,
        792,
        358,
        606,
        257,
        628,
        835,
        781,
        338,
        995,
        659,
        354,
        121,
        850,
        143,
        61,
        147,
        721,
        880,
        242,
        776,
        581,
        145,
        847,
        864,
        181,
        537,
        99,
        180,
        905,
        435,
        343,
        977,
        215,
        199,
        34,
        372,
        961,
        551,
        351,
        224,
        784,
        213,
        31,
        287,
        620,
        513,
        327,
        384,
        682,
        296,
        918,
        306,
        546,
        16,
        502,
        853,
        760,
        60,
        32,
        873,
        44,
        956,
        39,
        600,
        386,
        406,
        616,
        994,
        635,
        877,
        94,
        650,
        196,
        844,
        413,
        731,
        527,
        164,
        86,
        14,
        637,
        695,
        172,
        683,
        26,
        128,
        883,
        851,
        501,
        901,
        474,
        337,
        152,
        969,
        917,
        738,
        325,
        304,
        223,
        571,
        972,
        472,
        773,
        523,
        458,
        974,
        574,
        815,
        531,
        908,
        511,
        433,
        503,
        202,
        663,
        4,
        312,
        692,
        687,
        567,
        777,
        534,
        701,
        353,
        728,
        652,
        137,
        176,
        666,
        194,
        920,
        18,
        937,
        297,
        559,
        597,
        945,
        607,
        492,
        586,
        516,
        499,
        342,
        879,
        630,
        906,
        233,
        557,
        932,
        966,
        258,
        907,
        798,
        980,
        564,
        448,
        374,
        130,
        952,
        166,
        913,
        814,
        335,
        528,
        648,
        733,
        990,
        604,
        812,
        249,
        20,
        869,
        115,
        25,
        141,
        276,
        541,
        796,
        316,
        326,
        849,
        984,
        771,
        862,
        57,
        915,
        307
    ],
    "Nb of functions evaluations": 200010,
    "Computational time in seconds": 3125.6826252937317,
    "Stopping criterion in evaluations": 200000
}